c Generated map
c Size: 9 * 9, weights in range: 1 to 10, walls: True, with ratio 0.1
c dim 6 of 8
c
p sp 81 115
c graph contains 81 nodes and 115 arcs
c
a 1 10 8
a 10 1 8
a 1 2 2
a 2 1 2
a 2 11 4
a 11 2 4
a 2 3 10
a 3 2 10
a 3 12 9
a 12 3 9
a 3 4 1
a 4 3 1
a 4 13 2
a 13 4 2
a 4 5 9
a 5 4 9
a 7 16 7
a 16 7 7
a 7 8 2
a 8 7 2
a 8 17 4
a 17 8 4
a 8 9 2
a 9 8 2
a 9 18 7
a 18 9 7
a 10 19 1
a 19 10 1
a 10 11 2
a 11 10 2
a 11 20 3
a 20 11 3
a 11 12 3
a 12 11 3
a 12 21 7
a 21 12 7
a 12 13 1
a 13 12 1
a 15 24 1
a 24 15 1
a 15 16 8
a 16 15 8
a 16 25 8
a 25 16 8
a 16 17 7
a 17 16 7
a 17 26 4
a 26 17 4
a 17 18 6
a 18 17 6
a 18 27 9
a 27 18 9
a 19 28 3
a 28 19 3
a 19 20 4
a 20 19 4
a 20 29 6
a 29 20 6
a 20 21 1
a 21 20 1
a 21 30 10
a 30 21 10
a 23 32 10
a 32 23 10
a 23 24 6
a 24 23 6
a 24 33 8
a 33 24 8
a 24 25 3
a 25 24 3
a 25 34 9
a 34 25 9
a 25 26 5
a 26 25 5
a 26 35 6
a 35 26 6
a 26 27 7
a 27 26 7
a 27 36 4
a 36 27 4
a 28 29 9
a 29 28 9
a 29 38 10
a 38 29 10
a 29 30 4
a 30 29 4
a 30 31 3
a 31 30 3
a 31 40 3
a 40 31 3
a 31 32 10
a 32 31 10
a 32 41 9
a 41 32 9
a 32 33 7
a 33 32 7
a 33 42 10
a 42 33 10
a 33 34 6
a 34 33 6
a 34 43 5
a 43 34 5
a 34 35 3
a 35 34 3
a 35 36 2
a 36 35 2
a 36 45 10
a 45 36 10
a 38 47 10
a 47 38 10
a 40 49 7
a 49 40 7
a 40 41 1
a 41 40 1
a 41 50 2
a 50 41 2
a 41 42 3
a 42 41 3
a 42 51 4
a 51 42 4
a 42 43 2
a 43 42 2
a 43 52 8
a 52 43 8
a 45 54 6
a 54 45 6
a 46 55 3
a 55 46 3
a 46 47 10
a 47 46 10
a 47 56 10
a 56 47 10
a 47 48 6
a 48 47 6
a 48 57 9
a 57 48 9
a 48 49 6
a 49 48 6
a 49 58 7
a 58 49 7
a 49 50 5
a 50 49 5
a 50 59 8
a 59 50 8
a 50 51 2
a 51 50 2
a 51 60 9
a 60 51 9
a 51 52 3
a 52 51 3
a 52 61 2
a 61 52 2
a 52 53 5
a 53 52 5
a 53 62 8
a 62 53 8
a 53 54 6
a 54 53 6
a 55 64 4
a 64 55 4
a 55 56 1
a 56 55 1
a 56 65 6
a 65 56 6
a 56 57 1
a 57 56 1
a 57 66 7
a 66 57 7
a 57 58 7
a 58 57 7
a 58 67 2
a 67 58 2
a 58 59 10
a 59 58 10
a 59 68 5
a 68 59 5
a 59 60 1
a 60 59 1
a 60 69 5
a 69 60 5
a 60 61 6
a 61 60 6
a 61 62 9
a 62 61 9
a 62 71 4
a 71 62 4
a 64 73 2
a 73 64 2
a 64 65 2
a 65 64 2
a 65 74 5
a 74 65 5
a 65 66 3
a 66 65 3
a 66 75 2
a 75 66 2
a 66 67 5
a 67 66 5
a 67 76 2
a 76 67 2
a 67 68 3
a 68 67 3
a 68 77 8
a 77 68 8
a 68 69 3
a 69 68 3
a 69 78 10
a 78 69 10
a 71 80 7
a 80 71 7
a 71 72 4
a 72 71 4
a 72 81 1
a 81 72 1
a 73 74 9
a 74 73 9
a 74 75 7
a 75 74 7
a 75 76 4
a 76 75 4
a 76 77 2
a 77 76 2
a 77 78 6
a 78 77 6
a 78 79 2
a 79 78 2
a 79 80 3
a 80 79 3
a 80 81 7
a 81 80 7
